sat
(model 
  (define-fun w () Int
    (- 2))
  (define-fun z () Int
    1)
  (define-fun y () Int
    0)
  (define-fun k () Int
    1)
  (define-fun l () Int
    3)
  (define-fun x () Int
    (- 1))
  (define-fun n () Int
    4)
  (define-fun A2!9 ((x!1 Int)) Int
    (ite (= x!1 3) (- 1)
      (- 2)))
  (define-fun k!8 ((x!1 Int)) Int
    (ite (>= x!1 1) (ite (>= x!1 3) 3 1) 0))
  (define-fun A2 ((x!1 Int)) Int
    (A2!9 (k!8 x!1)))
  (define-fun A1 ((x!1 Int)) Int
    (ite (= x!1 1) (- 2)
    (ite (= x!1 3) 1
    (ite (= x!1 0) (- 2)
      (A2 x!1)))))
  (define-fun A0 ((x!1 Int)) Int
    (ite (= x!1 3) 1
    (ite (= x!1 0) (- 2)
      (A1 x!1))))
  (define-fun A3 ((x!1 Int)) Int
    (ite (= x!1 1) 0
    (ite (= x!1 3) 1
    (ite (= x!1 0) (- 2)
      (A0 x!1)))))
  (define-fun A4 ((x!1 Int)) Int
    (ite (= x!1 1) 0
    (ite (= x!1 0) (- 2)
      (A3 x!1))))
)
unsat
